p cnf 12 28
12 -11 1 0
12 -10 2 0
12 9 -3 0
-12 7 6 0
-12 7 5 0
-12 7 1 0
-12 6 -3 0
12 5 2 0
12 4 -3 0
12 -4 1 0
-11 -10 4 0
11 9 8 0
11 -8 6 0
-11 8 -5 0
11 -6 -2 0
-11 -4 1 0
-10 -9 7 0
10 -7 -6 0
9 -8 -5 0
-9 -6 -5 0
-9 6 1 0
-9 -4 -2 0
-7 -6 -4 0
7 5 4 0
6 5 4 0
-6 5 3 0
6 3 -2 0
-5 -2 1 0
